
Gurobi 11.0.3 (linux64) logging started Sat Nov 23 11:30:08 2024

Set parameter LogFile to value "/home/yihong/Coding/OR_SUC/SUC_results_bigM100000_thread4/case24_ieee_rts_theta0.1_epsilon0.05_gurobi_seed800000_num_gen100_N_WDR50_load_scaling_factor1_proposed_T24quadra_cost.txt"
Set parameter TimeLimit to value 3600
Gurobi Optimizer version 11.0.3 build v11.0.3rc0 (linux64 - "Ubuntu 20.04.6 LTS")

CPU model: AMD EPYC 7532 32-Core Processor, instruction set [SSE2|AVX|AVX2]
Thread count: 64 physical cores, 128 logical processors, using up to 4 threads

Optimize a model with 51892 rows, 29811 columns and 708694 nonzeros
Model fingerprint: 0xed4d9b70
Model has 2400 quadratic constraints
Variable types: 27411 continuous, 2400 integer (2400 binary)
Coefficient statistics:
  Matrix range     [3e-04, 2e+03]
  QMatrix range    [2e-03, 8e-03]
  QLMatrix range   [4e-02, 6e+01]
  Objective range  [1e+00, 1e+00]
  Bounds range     [1e+00, 1e+00]
  RHS range        [1e+00, 9e+03]
Presolve removed 42068 rows and 12911 columns
Presolve time: 0.25s
Presolved: 9824 rows, 16900 columns, 61784 nonzeros
Presolved model has 2400 quadratic constraint(s)
Variable types: 14500 continuous, 2400 integer (2400 binary)

Root relaxation: objective 2.715813e+04, 7731 iterations, 0.22 seconds (0.34 work units)

    Nodes    |    Current Node    |     Objective Bounds      |     Work
 Expl Unexpl |  Obj  Depth IntInf | Incumbent    BestBd   Gap | It/Node Time

     0     0 27158.1339    0   24          - 27158.1339      -     -    0s
     0     0 297700.702    0  853          - 297700.702      -     -    1s
     0     0 323388.679    0  845          - 323388.679      -     -    1s
     0     0 622277.919    0  800          - 622277.919      -     -    1s
     0     0 622340.240    0  613          - 622340.240      -     -    1s
     0     0 622573.765    0  430          - 622573.765      -     -    1s
     0     0 622574.921    0  430          - 622574.921      -     -    1s
     0     0 622575.657    0  430          - 622575.657      -     -    2s
     0     2 622576.149    0  430          - 622576.149      -     -    2s
H  473   318                    622787.61511 622596.121  0.03%  45.7    4s
*  473   318             206    622787.61511 622596.121  0.03%  45.7    4s

Cutting planes:
  Gomory: 8
  Implied bound: 404
  MIR: 74
  Flow cover: 174

Explored 566 nodes (46855 simplex iterations) in 5.64 seconds (7.39 work units)
Thread count was 4 (of 128 available processors)

Solution count 2: 622788 622788 

Optimal solution found (tolerance 1.00e-03)
Warning: max constraint violation (5.7366e-07) exceeds tolerance
Best objective 6.227876151099e+05, best bound 6.225961214949e+05, gap 0.0307%
